p tdp 119 118
51 22
95 54
107 88
107 118
112 25
111 75
47 117
92 64
74 91
16 8
113 99
13 71
71 119
86 89
20 87
111 87
12 105
82 87
31 35
106 18
11 74
12 10
116 70
108 79
68 14
96 103
89 100
63 3
16 45
46 37
104 99
62 9
58 52
68 10
48 78
15 49
5 43
63 32
85 78
39 42
1 118
65 35
49 113
67 33
71 84
77 93
115 93
42 1
1 108
9 19
17 98
85 73
86 76
90 64
60 6
69 45
59 102
24 43
40 62
103 61
57 34
97 58
44 30
26 53
33 49
114 62
65 23
41 54
2 45
44 91
108 27
116 55
5 21
5 8
53 80
109 2
85 47
29 65
90 16
107 94
111 6
55 57
11 81
95 44
47 98
25 72
116 47
101 80
28 94
87 32
7 58
22 40
31 25
65 58
13 78
19 99
99 50
24 18
71 45
36 115
83 66
33 63
110 18
56 37
38 83
9 44
18 115
76 112
56 103
32 27
45 61
4 83
102 108
68 78
100 33
4 29
80 83
72 37
